NAME          DCAP_2_4_3_500_SS457
ROWS
 N  OBJ
 L  CON1
 L  CON2
 L  CON3
 L  CON4
 L  CON5
 L  CON6
 L  CON7
 L  CON8
 L  CON9
 L  CON10
 L  CON11
 L  CON12
 E  CON13
 E  CON14
 E  CON15
 E  CON16
 E  CON17
 E  CON18
 E  CON19
 E  CON20
 E  CON21
 E  CON22
 E  CON23
 E  CON24
COLUMNS
    x[1,1]    OBJ       6.180167      CON1      1.000000    
    x[1,1]    CON7      -1.000000     CON8      -1.000000   
    x[1,1]    CON9      -1.000000   
    x[1,2]    OBJ       6.563535      CON2      1.000000    
    x[1,2]    CON8      -1.000000     CON9      -1.000000   
    x[1,3]    OBJ       7.443064      CON3      1.000000    
    x[1,3]    CON9      -1.000000   
    x[2,1]    OBJ       6.732585      CON4      1.000000    
    x[2,1]    CON10     -1.000000     CON11     -1.000000   
    x[2,1]    CON12     -1.000000   
    x[2,2]    OBJ       5.039546      CON5      1.000000    
    x[2,2]    CON11     -1.000000     CON12     -1.000000   
    x[2,3]    OBJ       6.054841      CON6      1.000000    
    x[2,3]    CON12     -1.000000   
    MARKER    'MARKER'                'INTORG'
    u[1,1]    OBJ       48.076654     CON1      -1.000000   
    u[1,2]    OBJ       20.066487     CON2      -1.000000   
    u[1,3]    OBJ       32.230043     CON3      -1.000000   
    u[2,1]    OBJ       49.996186     CON4      -1.000000   
    u[2,2]    OBJ       49.466655     CON5      -1.000000   
    u[2,3]    OBJ       27.484319     CON6      -1.000000   
    y[1,1,1]  OBJ       6.832898      CON7      1.351025    
    y[1,1,1]  CON13     1.000000    
    y[1,1,2]  OBJ       6.241488      CON8      0.574384    
    y[1,1,2]  CON14     1.000000    
    y[1,1,3]  OBJ       8.976814      CON9      0.982201    
    y[1,1,3]  CON15     1.000000    
    y[1,2,1]  OBJ       7.517957      CON7      0.553421    
    y[1,2,1]  CON16     1.000000    
    y[1,2,2]  OBJ       9.816343      CON8      1.300135    
    y[1,2,2]  CON17     1.000000    
    y[1,2,3]  OBJ       7.086696      CON9      0.960550    
    y[1,2,3]  CON18     1.000000    
    y[1,3,1]  OBJ       7.666624      CON7      0.595559    
    y[1,3,1]  CON19     1.000000    
    y[1,3,2]  OBJ       7.485725      CON8      1.422929    
    y[1,3,2]  CON20     1.000000    
    y[1,3,3]  OBJ       9.601891      CON9      1.281797    
    y[1,3,3]  CON21     1.000000    
    y[1,4,1]  OBJ       5.828126      CON7      0.546591    
    y[1,4,1]  CON22     1.000000    
    y[1,4,2]  OBJ       8.135562      CON8      1.399404    
    y[1,4,2]  CON23     1.000000    
    y[1,4,3]  OBJ       7.433369      CON9      0.975096    
    y[1,4,3]  CON24     1.000000    
    y[2,1,1]  OBJ       7.555577      CON10     1.351025    
    y[2,1,1]  CON13     1.000000    
    y[2,1,2]  OBJ       9.582642      CON11     0.574384    
    y[2,1,2]  CON14     1.000000    
    y[2,1,3]  OBJ       8.856958      CON12     0.982201    
    y[2,1,3]  CON15     1.000000    
    y[2,2,1]  OBJ       7.951565      CON10     0.553421    
    y[2,2,1]  CON16     1.000000    
    y[2,2,2]  OBJ       9.212501      CON11     1.300135    
    y[2,2,2]  CON17     1.000000    
    y[2,2,3]  OBJ       6.385454      CON12     0.960550    
    y[2,2,3]  CON18     1.000000    
    y[2,3,1]  OBJ       6.461066      CON10     0.595559    
    y[2,3,1]  CON19     1.000000    
    y[2,3,2]  OBJ       8.550130      CON11     1.422929    
    y[2,3,2]  CON20     1.000000    
    y[2,3,3]  OBJ       5.496245      CON12     1.281797    
    y[2,3,3]  CON21     1.000000    
    y[2,4,1]  OBJ       6.615226      CON10     0.546591    
    y[2,4,1]  CON22     1.000000    
    y[2,4,2]  OBJ       5.251333      CON11     1.399404    
    y[2,4,2]  CON23     1.000000    
    y[2,4,3]  OBJ       5.814085      CON12     0.975096    
    y[2,4,3]  CON24     1.000000    
    z[1,1]    OBJ       832.877623    CON13     1.000000    
    z[1,2]    OBJ       887.347860    CON14     1.000000    
    z[1,3]    OBJ       766.155400    CON15     1.000000    
    z[2,1]    OBJ       854.676163    CON16     1.000000    
    z[2,2]    OBJ       789.182583    CON17     1.000000    
    z[2,3]    OBJ       600.585392    CON18     1.000000    
    z[3,1]    OBJ       694.411326    CON19     1.000000    
    z[3,2]    OBJ       980.360003    CON20     1.000000    
    z[3,3]    OBJ       778.487937    CON21     1.000000    
    z[4,1]    OBJ       830.533496    CON22     1.000000    
    z[4,2]    OBJ       649.293982    CON23     1.000000    
    z[4,3]    OBJ       979.170113    CON24     1.000000    
    MARKER    'MARKER'                 'INTEND'
RHS
    RHS       CON1      -0.000000     CON2      -0.000000   
    RHS       CON3      -0.000000     CON4      -0.000000   
    RHS       CON5      -0.000000     CON6      -0.000000   
    RHS       CON7      -0.000000     CON8      -0.000000   
    RHS       CON9      -0.000000     CON10     -0.000000   
    RHS       CON11     -0.000000     CON12     -0.000000   
    RHS       CON13     1.000000      CON14     1.000000    
    RHS       CON15     1.000000      CON16     1.000000    
    RHS       CON17     1.000000      CON18     1.000000    
    RHS       CON19     1.000000      CON20     1.000000    
    RHS       CON21     1.000000      CON22     1.000000    
    RHS       CON23     1.000000      CON24     1.000000    
BOUNDS
 BV BOUND     u[1,1]  
 BV BOUND     u[1,2]  
 BV BOUND     u[1,3]  
 BV BOUND     u[2,1]  
 BV BOUND     u[2,2]  
 BV BOUND     u[2,3]  
 BV BOUND     y[1,1,1]
 BV BOUND     y[1,1,2]
 BV BOUND     y[1,1,3]
 BV BOUND     y[1,2,1]
 BV BOUND     y[1,2,2]
 BV BOUND     y[1,2,3]
 BV BOUND     y[1,3,1]
 BV BOUND     y[1,3,2]
 BV BOUND     y[1,3,3]
 BV BOUND     y[1,4,1]
 BV BOUND     y[1,4,2]
 BV BOUND     y[1,4,3]
 BV BOUND     y[2,1,1]
 BV BOUND     y[2,1,2]
 BV BOUND     y[2,1,3]
 BV BOUND     y[2,2,1]
 BV BOUND     y[2,2,2]
 BV BOUND     y[2,2,3]
 BV BOUND     y[2,3,1]
 BV BOUND     y[2,3,2]
 BV BOUND     y[2,3,3]
 BV BOUND     y[2,4,1]
 BV BOUND     y[2,4,2]
 BV BOUND     y[2,4,3]
 BV BOUND     z[1,1]  
 BV BOUND     z[1,2]  
 BV BOUND     z[1,3]  
 BV BOUND     z[2,1]  
 BV BOUND     z[2,2]  
 BV BOUND     z[2,3]  
 BV BOUND     z[3,1]  
 BV BOUND     z[3,2]  
 BV BOUND     z[3,3]  
 BV BOUND     z[4,1]  
 BV BOUND     z[4,2]  
 BV BOUND     z[4,3]  
ENDATA
